2	25
83	305	233	218	18	111	604	325	562	826	525	679	999	752	840	19	799	123	888	219	885	778	524	841	147	
854	382	159	880	71	165	336	790	290	95	553	302	812	101	713	557	153	661	287	182	654	481	408	60	732	
2670	2670	
